(set-info :smt-lib-version 2.6)
(set-logic QF_SLIA)
(set-info :source |
Generated by: Joel Day, Thorsten Ehlers, Mitja Kulczynski, Federico Mora, Florin Manea, Dirk Nowotka, Danny Poulsen, Zhengyang Lu
Application: Test WOORPJE
Target solver: WOORPJE
Publications: Day, J. D., Ehlers, T., Kulczynski, M., Manea, F., Nowotka, D., & Poulsen, D. B. (2019). On solving word equations using SAT. In RP 2019
Description: Enriches a system of 30 word equations by suitable linear constraints
|)
(set-info :license "https://creativecommons.org/licenses/by/4.0/")
(set-info :category "random")
(set-info :status unknown)

(declare-fun C () String)
(declare-fun D () String)
(declare-fun J () String)
(assert (= (str.++  "aadbfffb" J "abffaefb" J D "fbaeaefd")  (str.++  "aadbfffb" J "a" J "ffaef" C) ))
(assert (= (str.++  "bdbf" J "fdbacfafaaeadaedcbccecebccaddbfb" J "d" J)  (str.++  J "d" J "f" J "fdbacfafaaeadaedc" J "ccece" J "ccaddbfbbdb") ))
(assert (= (str.++  "fffbddffdadec" J J "bbbcb" J "aefaeecf" J "aabbfabebd")  (str.++  "fff" J "ddffdadec" J J "b" J "bcb" J "aefaeecfbaa" J J "fa" J "ebd") ))
(assert (<=(* (str.len J) 13) 169))
(assert (<=(* (str.len C) 8) 504))
(assert (>=(* (str.len D) 12) 168))
(check-sat)

(exit)
